\ENCODING=ISO-8859-1
\Problem name: 

Maximize
 obj: 18 x1 + 13 x2 + 12 x3 + 14 x4 + 21 x5 + 18 x6 + 21 x7 + 18 x8 + 10 x9
      + 10 x10 + 8 x11 + 13 x12 + 18 x16 + 13 x17 + 12 x18 + 14 x19 + 21 x20
      + 18 x21 + 21 x22 + 18 x23 + 10 x24 + 10 x25 + 8 x26 + 13 x27 + 18 x31
      + 13 x32 + 12 x33 + 14 x34 + 21 x35 + 18 x36 + 21 x37 + 18 x38 + 10 x39
      + 10 x40 + 8 x41 + 13 x42
Subject To
 c1:  x1 + x16 + x31 <= 1
 c2:  x2 + x17 + x32 <= 1
 c3:  x3 + x18 + x33 <= 1
 c4:  x4 + x19 + x34 <= 1
 c5:  x5 + x20 + x35 <= 1
 c6:  x6 + x21 + x36 <= 1
 c7:  x7 + x22 + x37 <= 1
 c8:  x8 + x23 + x38 <= 1
 c9:  x9 + x24 + x39 <= 1
 c10: x10 + x25 + x40 <= 1
 c11: x11 + x26 + x41 <= 1
 c12: x12 + x27 + x42 <= 1
 c13: x13  = 1
 c14: x14  = 0
 c15: x15  = 0
 c16: x28  = 0
 c17: x29  = 1
 c18: x30  = 0
 c19: x43  = 0
 c20: x44  = 0
 c21: x45  = 1
Bounds
 0 <= x1 <= 1
 0 <= x2 <= 1
 0 <= x3 <= 1
 0 <= x4 <= 1
 0 <= x5 <= 1
 0 <= x6 <= 1
 0 <= x7 <= 1
 0 <= x8 <= 1
 0 <= x9 <= 1
 0 <= x10 <= 1
 0 <= x11 <= 1
 0 <= x12 <= 1
 0 <= x13 <= 1
 0 <= x14 <= 1
 0 <= x15 <= 1
 0 <= x16 <= 1
 0 <= x17 <= 1
 0 <= x18 <= 1
 0 <= x19 <= 1
 0 <= x20 <= 1
 0 <= x21 <= 1
 0 <= x22 <= 1
 0 <= x23 <= 1
 0 <= x24 <= 1
 0 <= x25 <= 1
 0 <= x26 <= 1
 0 <= x27 <= 1
 0 <= x28 <= 1
 0 <= x29 <= 1
 0 <= x30 <= 1
 0 <= x31 <= 1
 0 <= x32 <= 1
 0 <= x33 <= 1
 0 <= x34 <= 1
 0 <= x35 <= 1
 0 <= x36 <= 1
 0 <= x37 <= 1
 0 <= x38 <= 1
 0 <= x39 <= 1
 0 <= x40 <= 1
 0 <= x41 <= 1
 0 <= x42 <= 1
 0 <= x43 <= 1
 0 <= x44 <= 1
 0 <= x45 <= 1
End
